55243
24, 20, 50, 38, 8, 44, 32, 19, 49, 48, 17, 23, 21, 29, 22, 10, 14, 2, 42, 33, 27, 1, 31, 25, 11, 45, 52, 15, 36, 46, 39, 16, 9, 12, 18, 4, 30, 47, 54, 34, 53, 26, 55, 28, 3, 6, 43, 13, 41, 37, 7, 40, 51, 5, 35
